c "954698.clq"
p edge 100 1344
e 1 17
e 1 18
e 1 20
e 1 22
e 1 23
e 1 24
e 1 26
e 1 27
e 1 29
e 1 30
e 1 35
e 1 36
e 1 37
e 1 38
e 1 41
e 1 44
e 1 45
e 1 50
e 1 52
e 1 55
e 1 59
e 1 61
e 1 68
e 1 80
e 1 83
e 1 97
e 2 17
e 2 18
e 2 19
e 2 20
e 2 22
e 2 24
e 2 26
e 2 29
e 2 30
e 2 31
e 2 33
e 2 36
e 2 42
e 2 47
e 2 49
e 2 51
e 2 56
e 2 60
e 2 61
e 2 71
e 2 78
e 2 79
e 2 83
e 2 93
e 2 99
e 3 17
e 3 19
e 3 20
e 3 21
e 3 22
e 3 23
e 3 24
e 3 28
e 3 29
e 3 33
e 3 34
e 3 35
e 3 37
e 3 38
e 3 41
e 3 43
e 3 44
e 3 61
e 3 62
e 3 66
e 3 69
e 3 70
e 3 71
e 3 74
e 3 77
e 3 78
e 3 80
e 3 82
e 3 83
e 3 87
e 4 17
e 4 18
e 4 19
e 4 20
e 4 21
e 4 32
e 4 34
e 4 35
e 4 41
e 4 54
e 4 78
e 4 93
e 4 94
e 4 98
e 5 17
e 5 18
e 5 20
e 5 21
e 5 22
e 5 25
e 5 26
e 5 27
e 5 30
e 5 33
e 5 37
e 5 39
e 5 41
e 5 42
e 5 43
e 5 44
e 5 46
e 5 54
e 5 57
e 5 70
e 5 71
e 5 83
e 5 92
e 6 17
e 6 18
e 6 19
e 6 20
e 6 21
e 6 22
e 6 25
e 6 26
e 6 28
e 6 31
e 6 34
e 6 38
e 6 40
e 6 46
e 6 48
e 6 50
e 6 53
e 6 54
e 6 60
e 6 75
e 6 100
e 7 17
e 7 18
e 7 19
e 7 20
e 7 21
e 7 22
e 7 23
e 7 24
e 7 28
e 7 29
e 7 30
e 7 31
e 7 33
e 7 34
e 7 41
e 7 42
e 7 46
e 7 47
e 7 52
e 7 67
e 7 70
e 7 73
e 7 82
e 7 83
e 7 84
e 7 88
e 7 89
e 7 91
e 7 95
e 7 96
e 7 98
e 7 100
e 8 17
e 8 18
e 8 19
e 8 20
e 8 21
e 8 23
e 8 25
e 8 26
e 8 31
e 8 34
e 8 35
e 8 41
e 8 45
e 8 56
e 8 57
e 8 59
e 8 60
e 8 62
e 8 74
e 8 78
e 8 80
e 8 81
e 8 94
e 8 99
e 9 17
e 9 18
e 9 19
e 9 20
e 9 21
e 9 22
e 9 23
e 9 24
e 9 25
e 9 26
e 9 28
e 9 30
e 9 32
e 9 38
e 9 39
e 9 40
e 9 45
e 9 46
e 9 49
e 9 51
e 9 52
e 9 55
e 9 56
e 9 58
e 9 59
e 9 63
e 9 68
e 9 69
e 9 71
e 9 73
e 9 76
e 9 77
e 9 81
e 9 83
e 9 84
e 9 94
e 9 97
e 9 99
e 10 17
e 10 18
e 10 19
e 10 20
e 10 21
e 10 23
e 10 24
e 10 25
e 10 26
e 10 27
e 10 29
e 10 36
e 10 44
e 10 46
e 10 48
e 10 62
e 10 83
e 10 85
e 10 88
e 10 89
e 10 96
e 11 17
e 11 18
e 11 19
e 11 20
e 11 30
e 11 32
e 11 36
e 11 37
e 11 40
e 11 43
e 11 50
e 11 51
e 11 60
e 11 63
e 11 69
e 11 70
e 11 90
e 11 92
e 11 94
e 12 17
e 12 18
e 12 19
e 12 21
e 12 22
e 12 23
e 12 24
e 12 25
e 12 27
e 12 28
e 12 29
e 12 32
e 12 36
e 12 40
e 12 41
e 12 65
e 12 89
e 12 90
e 12 95
e 13 17
e 13 18
e 13 19
e 13 21
e 13 22
e 13 23
e 13 24
e 13 27
e 13 31
e 13 33
e 13 35
e 13 36
e 13 41
e 13 45
e 13 46
e 13 57
e 13 58
e 13 67
e 13 69
e 13 70
e 13 74
e 13 76
e 13 82
e 13 86
e 13 91
e 14 17
e 14 18
e 14 19
e 14 24
e 14 25
e 14 27
e 14 28
e 14 34
e 14 36
e 14 38
e 14 41
e 14 46
e 14 61
e 14 63
e 14 65
e 14 66
e 14 87
e 14 96
e 15 17
e 15 18
e 15 19
e 15 20
e 15 21
e 15 22
e 15 23
e 15 26
e 15 27
e 15 41
e 15 50
e 15 55
e 15 58
e 15 65
e 15 79
e 15 84
e 15 85
e 15 86
e 16 17
e 16 18
e 16 19
e 16 20
e 16 21
e 16 22
e 16 23
e 16 25
e 16 26
e 16 33
e 16 35
e 16 37
e 16 38
e 16 39
e 16 43
e 16 54
e 16 56
e 16 64
e 16 65
e 16 80
e 16 86
e 17 18
e 17 19
e 17 20
e 17 21
e 17 22
e 17 23
e 17 24
e 17 25
e 17 26
e 17 27
e 17 28
e 17 29
e 17 30
e 17 33
e 17 34
e 17 35
e 17 36
e 17 37
e 17 38
e 17 39
e 17 40
e 17 41
e 17 42
e 17 43
e 17 45
e 17 46
e 17 47
e 17 48
e 17 50
e 17 52
e 17 53
e 17 55
e 17 57
e 17 58
e 17 61
e 17 63
e 17 64
e 17 65
e 17 68
e 17 69
e 17 71
e 17 76
e 17 79
e 17 81
e 17 82
e 17 87
e 17 89
e 17 90
e 17 92
e 17 93
e 18 19
e 18 20
e 18 21
e 18 22
e 18 23
e 18 24
e 18 25
e 18 26
e 18 27
e 18 28
e 18 29
e 18 31
e 18 32
e 18 33
e 18 35
e 18 36
e 18 37
e 18 38
e 18 39
e 18 40
e 18 41
e 18 42
e 18 43
e 18 45
e 18 47
e 18 48
e 18 50
e 18 51
e 18 52
e 18 53
e 18 55
e 18 56
e 18 57
e 18 59
e 18 60
e 18 64
e 18 65
e 18 66
e 18 70
e 18 72
e 18 73
e 18 74
e 18 81
e 18 84
e 18 87
e 18 90
e 19 20
e 19 21
e 19 22
e 19 23
e 19 24
e 19 25
e 19 26
e 19 27
e 19 28
e 19 29
e 19 31
e 19 32
e 19 33
e 19 34
e 19 35
e 19 37
e 19 39
e 19 40
e 19 42
e 19 45
e 19 46
e 19 47
e 19 48
e 19 49
e 19 50
e 19 51
e 19 52
e 19 53
e 19 54
e 19 58
e 19 62
e 19 64
e 19 65
e 19 67
e 19 68
e 19 73
e 19 74
e 19 75
e 19 77
e 19 79
e 19 80
e 19 88
e 19 89
e 19 93
e 19 96
e 19 98
e 19 99
e 20 21
e 20 22
e 20 23
e 20 24
e 20 25
e 20 26
e 20 27
e 20 28
e 20 29
e 20 30
e 20 31
e 20 32
e 20 34
e 20 35
e 20 36
e 20 37
e 20 38
e 20 39
e 20 40
e 20 44
e 20 45
e 20 46
e 20 49
e 20 50
e 20 53
e 20 54
e 20 56
e 20 57
e 20 58
e 20 60
e 20 61
e 20 66
e 20 67
e 20 71
e 20 75
e 20 78
e 20 80
e 20 81
e 20 84
e 20 85
e 20 86
e 20 87
e 20 92
e 20 94
e 20 95
e 20 96
e 20 98
e 21 22
e 21 23
e 21 24
e 21 25
e 21 26
e 21 27
e 21 28
e 21 29
e 21 31
e 21 32
e 21 34
e 21 35
e 21 37
e 21 39
e 21 40
e 21 41
e 21 42
e 21 43
e 21 45
e 21 48
e 21 51
e 21 52
e 21 53
e 21 60
e 21 61
e 21 63
e 21 66
e 21 67
e 21 68
e 21 69
e 21 71
e 21 72
e 21 73
e 21 76
e 21 77
e 21 79
e 21 81
e 21 83
e 21 86
e 21 87
e 21 94
e 21 95
e 21 97
e 21 98
e 21 100
e 22 23
e 22 24
e 22 25
e 22 26
e 22 27
e 22 28
e 22 29
e 22 30
e 22 31
e 22 32
e 22 33
e 22 34
e 22 35
e 22 36
e 22 39
e 22 40
e 22 43
e 22 44
e 22 46
e 22 49
e 22 50
e 22 51
e 22 57
e 22 63
e 22 64
e 22 66
e 22 67
e 22 73
e 22 76
e 22 77
e 22 78
e 22 81
e 22 86
e 22 89
e 22 91
e 22 94
e 22 95
e 22 96
e 22 97
e 23 24
e 23 25
e 23 27
e 23 28
e 23 29
e 23 30
e 23 32
e 23 33
e 23 34
e 23 41
e 23 42
e 23 43
e 23 44
e 23 50
e 23 52
e 23 54
e 23 55
e 23 57
e 23 62
e 23 63
e 23 65
e 23 66
e 23 68
e 23 69
e 23 73
e 23 74
e 23 75
e 23 79
e 23 80
e 23 82
e 23 85
e 23 88
e 23 89
e 23 90
e 23 93
e 24 25
e 24 26
e 24 28
e 24 30
e 24 31
e 24 33
e 24 35
e 24 39
e 24 42
e 24 43
e 24 47
e 24 51
e 24 53
e 24 62
e 24 65
e 24 66
e 24 68
e 24 74
e 24 77
e 24 81
e 24 82
e 24 84
e 24 85
e 24 89
e 24 91
e 24 95
e 24 97
e 24 98
e 24 99
e 24 100
e 25 27
e 25 28
e 25 30
e 25 32
e 25 34
e 25 37
e 25 43
e 25 47
e 25 48
e 25 49
e 25 50
e 25 53
e 25 61
e 25 64
e 25 67
e 25 71
e 25 82
e 25 83
e 25 87
e 26 27
e 26 28
e 26 29
e 26 30
e 26 31
e 26 32
e 26 33
e 26 34
e 26 35
e 26 36
e 26 37
e 26 38
e 26 39
e 26 40
e 26 44
e 26 45
e 26 47
e 26 49
e 26 53
e 26 54
e 26 55
e 26 56
e 26 59
e 26 61
e 26 64
e 26 67
e 26 72
e 26 75
e 26 76
e 26 77
e 26 78
e 26 79
e 26 82
e 26 91
e 26 100
e 27 29
e 27 30
e 27 31
e 27 32
e 27 36
e 27 37
e 27 38
e 27 39
e 27 40
e 27 41
e 27 44
e 27 45
e 27 47
e 27 48
e 27 49
e 27 50
e 27 55
e 27 56
e 27 57
e 27 60
e 27 63
e 27 67
e 27 68
e 27 70
e 27 75
e 27 80
e 27 84
e 27 86
e 27 87
e 27 88
e 27 92
e 27 93
e 27 94
e 27 99
e 28 29
e 28 30
e 28 31
e 28 33
e 28 34
e 28 36
e 28 37
e 28 38
e 28 46
e 28 51
e 28 53
e 28 54
e 28 58
e 28 63
e 28 66
e 28 67
e 28 68
e 28 69
e 28 72
e 28 76
e 28 79
e 28 88
e 28 90
e 28 95
e 28 97
e 28 100
e 29 30
e 29 31
e 29 32
e 29 33
e 29 35
e 29 39
e 29 40
e 29 42
e 29 43
e 29 45
e 29 49
e 29 52
e 29 53
e 29 55
e 29 56
e 29 58
e 29 60
e 29 64
e 29 66
e 29 68
e 29 75
e 29 77
e 29 80
e 29 81
e 29 84
e 29 86
e 29 88
e 29 91
e 29 92
e 29 95
e 29 100
e 30 31
e 30 32
e 30 33
e 30 35
e 30 38
e 30 39
e 30 40
e 30 41
e 30 42
e 30 44
e 30 46
e 30 47
e 30 48
e 30 49
e 30 52
e 30 55
e 30 56
e 30 57
e 30 62
e 30 65
e 30 66
e 30 72
e 30 80
e 30 93
e 30 94
e 30 95
e 30 96
e 30 99
e 30 100
e 31 32
e 31 34
e 31 36
e 31 37
e 31 40
e 31 42
e 31 48
e 31 51
e 31 52
e 31 53
e 31 55
e 31 56
e 31 58
e 31 59
e 31 66
e 31 67
e 31 69
e 31 79
e 31 83
e 31 85
e 31 90
e 31 93
e 31 95
e 31 97
e 32 43
e 32 47
e 32 49
e 32 51
e 32 66
e 32 68
e 32 86
e 32 90
e 32 92
e 33 38
e 33 39
e 33 42
e 33 46
e 33 49
e 33 51
e 33 52
e 33 57
e 33 59
e 33 60
e 33 69
e 33 71
e 33 77
e 33 79
e 33 89
e 33 99
e 34 36
e 34 42
e 34 43
e 34 44
e 34 45
e 34 48
e 34 49
e 34 52
e 34 55
e 34 58
e 34 70
e 34 72
e 34 76
e 34 81
e 34 86
e 34 89
e 35 37
e 35 40
e 35 42
e 35 44
e 35 47
e 35 51
e 35 55
e 35 59
e 35 64
e 35 83
e 35 86
e 35 88
e 35 91
e 35 94
e 35 96
e 36 38
e 36 45
e 36 50
e 36 54
e 36 65
e 36 68
e 36 76
e 37 38
e 37 46
e 37 47
e 37 49
e 37 53
e 37 54
e 37 56
e 37 57
e 37 58
e 37 61
e 37 62
e 37 67
e 37 69
e 37 72
e 37 75
e 37 84
e 37 85
e 37 97
e 38 39
e 38 43
e 38 44
e 38 45
e 38 47
e 38 51
e 38 53
e 38 58
e 38 60
e 38 70
e 38 84
e 38 88
e 38 90
e 38 100
e 39 43
e 39 44
e 39 47
e 39 48
e 39 58
e 39 68
e 39 69
e 39 71
e 39 78
e 39 84
e 39 85
e 39 92
e 39 99
e 40 48
e 40 50
e 40 55
e 40 59
e 40 72
e 40 73
e 40 88
e 40 91
e 40 92
e 40 99
e 41 42
e 41 50
e 41 51
e 41 52
e 41 54
e 41 56
e 41 59
e 41 64
e 41 69
e 41 70
e 41 89
e 41 93
e 41 94
e 41 96
e 41 97
e 41 100
e 42 44
e 42 45
e 42 46
e 42 47
e 42 50
e 42 52
e 42 54
e 42 56
e 42 57
e 42 64
e 42 67
e 42 72
e 42 73
e 42 76
e 42 77
e 42 78
e 42 79
e 42 80
e 42 81
e 42 82
e 42 86
e 42 95
e 42 96
e 42 99
e 43 44
e 43 54
e 43 56
e 43 57
e 43 62
e 43 63
e 43 72
e 43 74
e 43 79
e 43 80
e 43 86
e 43 90
e 43 98
e 43 99
e 44 48
e 44 49
e 44 53
e 44 55
e 44 59
e 44 60
e 44 62
e 44 63
e 44 64
e 44 65
e 44 71
e 44 74
e 44 75
e 44 77
e 44 87
e 44 93
e 44 94
e 44 99
e 45 61
e 45 66
e 45 70
e 45 73
e 45 75
e 45 91
e 46 48
e 46 59
e 46 63
e 46 67
e 46 71
e 46 73
e 46 77
e 46 91
e 46 94
e 47 48
e 47 51
e 47 59
e 47 62
e 47 64
e 47 69
e 47 70
e 47 76
e 47 83
e 47 85
e 47 87
e 47 89
e 48 49
e 48 53
e 48 56
e 48 57
e 48 59
e 48 64
e 48 74
e 48 77
e 48 78
e 48 80
e 48 88
e 48 95
e 49 55
e 49 65
e 49 70
e 49 73
e 49 77
e 49 83
e 49 84
e 49 88
e 49 90
e 49 98
e 49 99
e 49 100
e 50 58
e 50 63
e 50 65
e 50 66
e 50 67
e 50 68
e 50 72
e 50 81
e 50 98
e 51 52
e 51 58
e 51 60
e 51 73
e 51 85
e 51 90
e 52 54
e 52 60
e 52 64
e 52 66
e 52 72
e 52 91
e 52 92
e 52 93
e 53 54
e 53 59
e 53 63
e 53 76
e 53 86
e 53 91
e 53 97
e 54 62
e 54 63
e 54 65
e 54 71
e 54 77
e 54 79
e 54 81
e 54 82
e 54 85
e 54 88
e 54 89
e 55 61
e 55 62
e 55 75
e 55 78
e 55 83
e 55 84
e 56 57
e 56 58
e 56 61
e 56 70
e 56 71
e 56 75
e 56 79
e 56 85
e 56 92
e 57 59
e 57 61
e 57 62
e 57 87
e 58 60
e 58 61
e 58 62
e 58 65
e 58 69
e 58 75
e 58 78
e 58 96
e 59 60
e 59 61
e 59 63
e 59 73
e 59 76
e 59 88
e 59 89
e 59 90
e 59 92
e 59 100
e 60 69
e 60 80
e 60 82
e 60 93
e 60 94
e 61 62
e 61 81
e 61 91
e 61 99
e 62 64
e 62 72
e 62 74
e 62 83
e 63 67
e 63 83
e 63 96
e 64 68
e 64 71
e 64 72
e 64 74
e 64 81
e 64 97
e 65 73
e 65 74
e 65 77
e 65 78
e 66 68
e 66 70
e 66 71
e 66 72
e 66 73
e 66 74
e 66 75
e 66 80
e 66 81
e 66 86
e 66 94
e 66 95
e 67 70
e 67 74
e 67 75
e 67 76
e 67 82
e 67 90
e 67 95
e 68 72
e 68 87
e 69 78
e 69 93
e 69 98
e 70 75
e 70 82
e 70 84
e 70 100
e 71 74
e 71 98
e 72 78
e 73 76
e 73 82
e 73 86
e 73 87
e 73 88
e 73 93
e 74 76
e 74 78
e 74 88
e 74 92
e 74 93
e 75 85
e 75 91
e 75 94
e 75 98
e 76 85
e 76 93
e 76 97
e 76 98
e 77 79
e 77 80
e 77 82
e 77 84
e 77 85
e 78 79
e 78 87
e 78 90
e 78 91
e 78 92
e 78 97
e 78 99
e 78 100
e 79 82
e 79 87
e 80 85
e 80 89
e 80 90
e 80 95
e 80 100
e 82 84
e 82 89
e 82 91
e 82 92
e 82 97
e 83 96
e 83 97
e 85 98
e 86 87
e 87 96
e 87 98
e 90 92
e 90 98
e 91 95
e 91 96
e 93 100
e 95 96
e 95 97
